Gurobi Basics/week_1_practice_questions.sol
# Solution for model basic_model
# Objective value = 1
X 0
Y 0
Z 2
